0 2038
1 1764
2 1600
3 1508
4 1431
5 1399
6 1341
7 1337
8 1300
9 1240
10 1240
11 1190
12 1185
13 1158
14 1146
15 1128
16 1128
17 1116
18 1096
19 1090
20 1082
21 1074
22 1062
23 1062
24 1048
25 1048
26 1045
27 1045
28 1043
29 1040
30 1040
31 1024
32 1024
33 1017
34 1005
35 1005
36 953
37 953
38 951
39 951
40 937
41 937
42 935
43 935
44 935
45 933
46 932
47 932
48 932
49 932
50 932
51 932
52 932
53 932
54 932
55 932
56 932
57 932
58 932
59 932
60 932
61 932
62 932
63 932
64 932
65 932
66 932
67 932
68 932
69 932
70 932
71 932
72 932
73 932
74 932
75 932
76 932
77 932
78 932
79 932
80 932
81 932
82 932
83 932
84 932
85 932
86 932
87 932
88 932
89 932
90 932
91 932
92 932
93 932
94 932
95 932
96 932
97 931
98 931
99 931
100 931
101 931
102 931
103 931
104 931
105 931
106 931
107 931
108 931
109 931
110 931
111 931
112 931
113 931
114 931
115 931
116 931
117 931
118 931
119 931
120 931
121 931
122 931
123 931
124 931
125 931
126 931
127 931
128 931
129 931
130 931
131 931
132 931
133 931
134 931
135 931
136 931
137 931
138 931
139 931
140 931
141 931
142 931
143 931
144 931
145 931
146 931
147 931
148 931
149 931
150 931
151 931
152 931
153 931
154 931
155 931
156 931
157 931
158 931
159 931
160 931
161 931
162 931
163 931
164 931
165 931
166 931
167 931
168 931
169 931
170 931
171 931
172 931
173 931
174 931
175 931
176 931
177 931
178 931
179 931
180 931
181 931
182 931
183 931
184 931
185 931
186 931
187 931
188 931
189 931
190 931
191 931
192 931
193 931
194 931
195 931
196 931
197 931
198 931
199 931
200 931
201 931
202 931
203 931
204 931
205 931
206 931
207 931
208 931
209 931
210 931
211 931
212 931
213 931
214 931
215 931
216 931
217 931
218 931
219 931
220 931
221 931
222 931
223 931
224 931
225 931
226 931
227 931
228 931
229 931
230 931
231 931
232 931
233 931
234 931
235 931
236 931
237 931
238 931
239 931
240 931
241 931
242 931
243 931
244 931
245 931
246 931
247 931
248 931
249 931
250 931
251 931
252 931
253 931
254 931
255 931
256 931
257 931
258 931
259 931
260 931
261 931
262 931
263 931
264 931
265 931
266 931
267 931
268 931
269 931
270 931
271 931
272 931
273 931
274 931
275 931
276 931
277 931
278 931
279 931
280 931
281 931
282 931
283 931
284 931
285 931
286 931
287 931
288 931
289 931
290 931
291 931
292 931
293 931
294 931
295 931
296 931
297 931
298 931
299 931
300 931
301 931
302 931
303 931
304 931
305 931
306 931
307 931
308 931
309 931
310 931
311 931
312 931
313 931
314 931
315 931
316 931
317 931
318 931
319 931
320 931
321 931
322 931
323 931
324 931
325 931
326 931
327 931
328 931
329 931
330 931
331 931
332 931
333 931
334 931
335 931
336 931
337 931
338 931
339 931
340 931
341 931
342 931
343 931
344 931
345 931
346 931
347 931
348 931
349 931
350 931
351 931
352 931
353 931
354 931
355 931
356 931
357 931
358 931
359 931
360 931
361 931
362 931
363 931
364 931
365 931
366 931
367 931
368 931
369 931
370 931
371 931
372 931
373 931
374 931
375 931
376 931
377 931
378 931
379 931
380 931
381 931
382 931
383 931
384 931
385 931
386 931
387 931
388 931
389 931
390 931
391 931
392 931
393 931
394 931
395 931
396 931
397 931
398 931
399 931
400 931
401 931
402 931
403 931
404 931
405 931
406 931
407 931
408 931
409 931
410 931
411 931
412 931
413 931
414 931
415 931
416 931
417 931
418 931
419 931
420 931
421 931
422 931
423 931
424 931
425 931
426 931
427 931
428 931
429 931
430 931
431 931
432 931
433 931
434 931
435 931
436 931
437 931
438 931
439 931
440 931
441 931
442 931
443 931
444 931
445 931
446 931
447 931
448 931
449 931
450 931
451 931
452 931
453 931
454 931
455 931
456 931
457 931
458 931
459 931
460 931
461 931
462 931
463 931
464 931
465 931
466 931
467 931
468 931
469 931
470 931
471 931
472 931
473 931
474 931
475 931
476 931
477 931
478 931
479 931
480 931
481 931
482 931
483 931
484 931
485 931
486 931
487 931
488 931
489 931
490 931
491 931
492 931
493 931
494 931
495 931
496 931
497 931
498 931
499 931
500 931
501 931
502 931
503 931
504 931
505 931
506 931
507 931
508 931
509 931
510 931
511 931
512 931
513 931
514 931
515 931
516 931
517 931
518 931
519 931
520 931
521 931
522 931
523 931
524 931
525 931
526 931
527 931
528 931
529 931
530 931
531 931
532 931
533 931
534 931
535 931
536 931
537 931
538 931
539 931
540 931
541 931
542 931
543 931
544 931
545 931
546 931
547 931
548 931
549 931
550 931
551 931
552 931
553 931
554 931
555 931
556 931
557 931
558 931
559 931
560 931
561 931
562 931
563 931
564 931
565 931
566 931
567 931
568 931
569 931
570 931
571 931
572 931
573 931
574 931
575 931
576 931
577 931
578 931
579 931
580 931
581 931
582 931
583 931
584 931
585 931
586 931
587 931
588 931
589 931
590 931
591 931
592 931
593 931
594 931
595 931
596 931
597 931
598 931
599 931
600 931
601 931
602 931
603 931
604 931
605 931
606 931
607 931
608 931
609 931
610 931
611 931
612 931
613 931
614 931
615 931
616 931
617 931
618 931
619 931
620 931
621 931
622 931
623 931
624 931
625 931
626 931
627 931
628 931
629 931
630 931
631 931
632 931
633 931
634 931
635 931
636 931
637 931
638 931
639 931
640 931
641 931
642 931
643 931
644 931
645 931
646 931
647 931
648 931
649 931
650 931
651 931
652 931
653 931
654 931
655 931
656 931
657 931
658 931
659 931
660 931
661 931
662 931
663 931
664 931
665 931
666 931
667 931
668 931
669 931
670 931
671 931
672 931
673 931
674 931
675 931
676 931
677 931
678 931
679 931
680 931
681 931
682 931
683 931
684 931
685 931
686 931
687 931
688 931
689 931
690 931
691 931
692 931
693 931
694 931
695 931
696 931
697 931
698 931
699 931
700 931
701 931
702 931
703 931
704 931
705 931
706 931
707 931
708 931
709 931
710 931
711 931
712 931
713 931
714 931
715 931
716 931
717 931
718 931
719 931
720 931
721 931
722 931
723 931
724 931
725 931
726 931
727 931
728 931
729 931
730 931
731 931
732 931
733 931
734 931
735 931
736 931
737 931
738 931
739 931
740 931
741 931
742 931
743 931
744 931
745 931
746 931
747 931
748 931
749 931
750 931
751 931
752 931
753 931
754 931
755 931
756 931
757 931
758 931
759 931
760 931
761 931
762 931
763 931
764 931
765 931
766 931
767 931
768 931
769 931
770 931
771 931
772 931
773 931
774 931
775 931
776 931
777 931
778 931
779 931
780 931
781 931
782 931
783 931
784 931
785 931
786 931
787 931
788 931
789 931
790 931
791 931
792 931
793 931
794 931
795 931
796 931
797 931
798 931
799 931
800 931
801 931
802 931
803 931
804 931
805 931
806 931
807 931
808 931
809 931
810 931
811 931
812 931
813 931
814 931
815 931
816 931
817 931
818 931
819 931
820 931
821 931
822 931
823 931
824 931
825 931
826 931
827 931
828 931
829 931
830 931
831 931
832 931
833 931
834 931
835 931
836 931
837 931
838 931
839 931
840 931
841 931
842 931
843 931
844 931
845 931
846 931
847 931
848 931
849 931
850 931
851 931
852 931
853 931
854 931
855 931
856 931
857 931
858 931
859 931
860 931
861 931
862 931
863 931
864 931
865 931
866 931
867 931
868 931
869 931
870 931
871 931
872 931
873 931
874 931
875 931
876 931
877 931
878 931
879 931
880 931
881 931
882 931
883 931
884 931
885 931
886 931
887 931
888 931
889 931
890 931
891 931
892 931
893 931
894 931
895 931
896 931
897 931
898 931
899 931
900 931
901 931
902 931
903 931
904 931
905 931
906 931
907 931
908 931
909 931
910 931
911 931
912 931
913 931
914 931
915 931
916 931
917 931
918 931
919 931
920 931
921 931
922 931
923 931
924 931
925 931
926 931
927 931
928 931
929 931
930 931
931 931
932 931
933 931
934 931
935 931
936 931
937 931
938 931
939 931
940 931
941 931
942 931
943 931
944 931
945 931
946 931
947 931
948 931
949 931
950 931
951 931
952 931
953 931
954 931
955 931
956 931
957 931
958 931
959 931
960 931
961 931
962 931
963 931
964 931
965 931
966 931
967 931
968 931
969 931
970 931
971 931
972 931
973 931
974 931
975 931
976 931
977 931
978 931
979 931
980 931
981 931
982 931
983 931
984 931
985 931
986 931
987 931
988 931
989 931
990 931
991 931
992 931
993 931
994 931
995 931
996 931
997 931
998 931
999 931
Best: [[7,4,3,24,29,16,30],
       [27,8,22,32,20,18,14],
       [15,19,9,5,12,11,26,6,21],
       [28,23,10,25],
       [31,17,2,13]], fitness: 931
